experiments/sat_smt/run/sat-l/results/lydia.res
solved=true
solvingTime=151.796051025390625
nActions=27