experiments/sat_smt/run/sat-l/results/lydia.out
Timesteps: 1
s UNSATISFIABLE
real 0.13
user 0.00
sys 0.00
Timesteps: 2
s UNSATISFIABLE
real 0.07
user 0.01
sys 0.00
Timesteps: 3
s UNSATISFIABLE
real 0.08
user 0.03
sys 0.00
Timesteps: 4
s UNSATISFIABLE
real 0.16
user 0.06
sys 0.00
Timesteps: 5
s UNSATISFIABLE
real 0.14
user 0.09
sys 0.00
Timesteps: 6
s UNSATISFIABLE
real 0.25
user 0.19
sys 0.00
Timesteps: 7
s UNSATISFIABLE
real 0.61
user 0.53
sys 0.01
Timesteps: 8
s UNSATISFIABLE
real 1.18
user 1.08
sys 0.01
Timesteps: 9
s UNSATISFIABLE
real 1.21
user 1.12
sys 0.01
Timesteps: 10
s UNSATISFIABLE
real 2.18
user 2.08
sys 0.01
Timesteps: 11
s UNSATISFIABLE
real 2.21
user 2.08
sys 0.01
Timesteps: 12
s UNSATISFIABLE
real 5.96
user 5.80
sys 0.01
Timesteps: 13
s UNSATISFIABLE
real 6.66
user 6.50
sys 0.02
Timesteps: 14
s UNSATISFIABLE
real 6.99
user 6.80
sys 0.02
Timesteps: 15
s UNSATISFIABLE
real 8.32
user 8.12
sys 0.02
Timesteps: 16
s UNSATISFIABLE
real 6.85
user 6.65
sys 0.02
Timesteps: 17
s UNSATISFIABLE
real 7.94
user 7.68
sys 0.04
Timesteps: 18
s UNSATISFIABLE
real 8.21
user 7.98
sys 0.03
Timesteps: 19
s UNSATISFIABLE
real 8.96
user 8.73
sys 0.03
Timesteps: 20
s UNSATISFIABLE
real 9.20
user 8.94
sys 0.04
Timesteps: 21
s UNSATISFIABLE
real 8.61
user 8.35
sys 0.04
Timesteps: 22
s UNSATISFIABLE
real 10.34
user 10.07
sys 0.04
Timesteps: 23
s UNSATISFIABLE
real 9.80
user 9.52
sys 0.04
Timesteps: 24
s UNSATISFIABLE
real 10.00
user 9.70
sys 0.05
Timesteps: 25
s UNSATISFIABLE
real 12.34
user 11.96
sys 0.07
Timesteps: 26
s UNSATISFIABLE
real 12.06
user 11.71
sys 0.04
Timesteps: 27
s SATISFIABLE
real 11.93
user 11.58
sys 0.05
